start = 1;
limit = 6;
n = 14;
m=[|-1,-1,19,0,15,6,17,-1,-1,-1,-1,9,20,-1,
|15,-1,9,-1,7,-1,-1,-1,-1,-1,-1,-1,14,-1,
|18,3,-1,10,-1,-1,13,-1,4,18,13,-1,18,2,
|-1,-1,10,-1,-1,-1,12,-1,16,-1,-1,1,-1,-1,
|3,5,2,6,-1,-1,-1,-1,-1,-1,17,11,17,9,
|-1,13,-1,17,11,-1,-1,9,-1,-1,2,-1,-1,-1,
|-1,-1,10,-1,-1,-1,-1,-1,-1,-1,18,-1,7,20,
|9,17,-1,2,7,6,-1,-1,5,-1,-1,-1,-1,9,
|12,-1,4,-1,0,13,3,-1,-1,-1,20,-1,-1,14,
|-1,-1,-1,9,9,2,5,-1,-1,-1,-1,1,-1,-1,
|-1,4,10,-1,-1,-1,-1,-1,3,17,-1,5,-1,14,
|-1,-1,-1,-1,-1,10,-1,-1,-1,-1,4,-1,2,-1,
|-1,-1,18,-1,-1,-1,19,17,11,-1,10,19,-1,5,
|6,0,2,-1,-1,20,-1,-1,1,-1,-1,4,1,-1,
|]
;